language Essence 1.3

letting class be
        function(1 --> 5, 2 --> 7, 3 --> 3, 4 --> 2, 5 --> 7, 6 --> 5, 7 --> 1, 8 --> 5, 9 --> 8, 10 --> 8, 11 --> 1,
                 12 --> 5, 13 --> 2, 14 --> 4, 15 --> 8, 16 --> 1, 17 --> 8, 18 --> 5, 19 --> 6, 20 --> 4, 21 --> 8,
                 22 --> 5, 23 --> 5, 24 --> 7)
letting deck_length be 21
letting deck_width be 60
letting length be
        function(1 --> 18, 2 --> 8, 3 --> 6, 4 --> 21, 5 --> 8, 6 --> 20, 7 --> 13, 8 --> 6, 9 --> 4, 10 --> 17,
                 11 --> 15, 12 --> 13, 13 --> 13, 14 --> 4, 15 --> 4, 16 --> 12, 17 --> 3, 18 --> 4, 19 --> 21,
                 20 --> 6, 21 --> 16, 22 --> 12, 23 --> 6, 24 --> 19)
letting n_classes be 8
letting n_containers be 24
letting separation be function({4, 6} --> 44)
letting width be
        function(1 --> 1, 2 --> 2, 3 --> 1, 4 --> 45, 5 --> 1, 6 --> 1, 7 --> 1, 8 --> 1, 9 --> 1, 10 --> 1, 11 --> 1,
                 12 --> 1, 13 --> 1, 14 --> 1, 15 --> 2, 16 --> 1, 17 --> 1, 18 --> 1, 19 --> 1, 20 --> 1, 21 --> 2,
                 22 --> 1, 23 --> 1, 24 --> 1)
